400
750
599
598
595
594
592
592
590
586
585
584
583
581
581
580
578
577
577
576
575
575
571
570
570
569
569
566
565
564
561
561
560
559
559
558
555
551
549
545
544
539
537
537
535
534
532
531
531
528
528
525
525
522
519
517
516
514
512
509
508
508
508
506
505
500
499
498
497
497
495
493
492
492
485
485
485
483
483
482
482
481
480
479
479
474
472
472
472
469
469
469
467
464
464
463
460
457
457
456
455
454
453
451
451
450
449
449
449
445
445
445
444
442
441
440
439
438
436
432
431
430
429
427
427
427
427
426
425
425
424
424
423
423
423
422
422
422
422
420
420
417
416
415
413
412
412
409
409
407
405
405
403
400
398
397
396
395
394
394
392
392
389
386
385
384
383
382
382
381
380
380
379
378
378
372
369
368
368
367
366
366
365
363
362
360
360
359
359
358
357
356
356
354
352
351
351
351
351
350
350
349
343
342
341
340
339
336
336
331
331
330
329
328
326
323
322
322
319
318
316
315
314
313
309
308
306
305
303
301
301
299
298
297
297
295
294
290
288
288
284
283
282
280
273
271
269
268
267
261
261
261
260
255
255
251
251
249
248
248
248
247
246
245
245
245
245
243
243
242
242
241
241
240
238
237
236
234
234
232
232
231
231
228
227
227
226
225
224
223
223
222
222
222
221
221
220
218
216
214
213
212
211
208
208
207
205
205
203
203
202
201
199
199
196
189
188
188
188
186
182
181
181
179
179
177
175
172
170
170
170
170
167
164
163
161
158
157
156
156
155
154
154
149
147
146
145
142
142
140
140
139
138
138
138
137
137
136
134
134
133
133
131
131
129
128
126
125
124
122
118
113
112
110
110
109
109
109
105
105
99
98
97
95
95
92
92
90
90
89
88
87
86
86
86
85
85
80
79
79
78
75
